proble size: m = 5 , n = 5 , seed = 4 
Benders' cuts separated to cut off: Only integer infeasible solutions.
seed = 4
Version identifier: 20.1.0.0 | 2020-11-10 | 9bedb6d68
CPXPARAM_Threads                                 1
CPXPARAM_RandomSeed                              4
CPXPARAM_MIP_Strategy_CallbackReducedLP          0
CPXPARAM_MIP_Strategy_Search                     1
CPXPARAM_TimeLimit                               3600
CPXPARAM_MIP_Tolerances_AbsMIPGap                0
CPXPARAM_MIP_Tolerances_MIPGap                   0
Legacy callback                                  L
Tried aggregator 1 time.
Reduced MIP has 20 rows, 420 columns, and 400 nonzeros.
Reduced MIP has 400 binaries, 0 generals, 0 SOSs, and 0 indicators.
Presolve time = 0.05 sec. (0.16 ticks)
Probing time = 0.00 sec. (0.32 ticks)
Clique table members: 20.
MIP emphasis: balance optimality and feasibility.
MIP search method: traditional branch-and-cut.
Parallel mode: none, using 1 thread.
Root relaxation solution time = 0.04 sec. (0.09 ticks)

        Nodes                                         Cuts/
   Node  Left     Objective  IInf  Best Integer    Best Bound    ItCnt     Gap         Variable B NodeID Parent  Depth

      0     0        0.0000    16                      0.0000        0         
*     0+    0                          497.4853        0.0000           100.00%
*     0+    0                          367.9887        0.0000           100.00%
      0     0       79.2553    22      367.9887      Fract: 6       12   78.46%
*     0+    0                          366.0451       79.2553            78.35%
*     0+    0                          291.1213       79.2553            72.78%
      0     0      117.2391    19      291.1213      Fract: 9       34   59.73%
*     0+    0                          250.7955      117.2391            53.25%
*     0+    0                          180.1722      117.2391            34.93%
      0     2      133.7521    26      180.1722      133.7993       34   25.74%                        0             0
Elapsed time = 0.27 sec. (12.94 ticks, tree = 0.01 MB, solutions = 6)
*    20+   20                          178.6923      134.4584            24.75%
*    30+   30                          177.2752      134.4584            24.15%
*    50+   50                          161.7417      134.4584            16.87%
*    70+   46                          150.6260      134.7261            10.56%
*    90+   63                          149.8997      134.7261            10.12%
*    90+   55                          147.3671      134.7261             8.58%
*   130+   75                          144.6541      134.9552             6.70%
*   280+  123                          143.1624      138.2208             3.45%
*   300+  126                          142.8154      138.3914             3.10%
*   350+  138                          142.7028      139.1918             2.46%
*   370+  135                          142.4978      139.3369             2.22%
*   540+  173                          142.1070      140.1082             1.41%

Gomory fractional cuts applied:  11
User cuts applied:  94

Root node processing (before b&c):
  Real time             =    0.27 sec. (13.00 ticks)
Sequential b&c:
  Real time             =    0.21 sec. (189.23 ticks)
                          ------------
Total (root+branch&cut) =    0.48 sec. (202.23 ticks)

Solution status: 101
Objective value:  1.4210700000e+02
Solution status is CPX_STAT_OPTIMAL
Node: 981
